benchmarks_CP/INST_36x36/55/inst36x36_55_88.dzn
S=6;
start=[|
19,	-1,	-1,	-1,	-1,	16,	-1,	36,	20,	9,	-1,	-1,	6,	29,	-1,	-1,	27,	-1,	28,	-1,	-1,	11,	-1,	32,	-1,	14,	-1,	-1,	12,	23,	10,	17,	-1,	-1,	-1,	-1|
26,	34,	-1,	30,	-1,	5,	11,	-1,	27,	7,	-1,	25,	20,	-1,	-1,	18,	-1,	16,	9,	13,	-1,	22,	-1,	-1,	-1,	-1,	3,	-1,	36,	35,	14,	29,	-1,	-1,	-1,	28|
-1,	28,	21,	-1,	15,	-1,	-1,	-1,	-1,	-1,	32,	14,	24,	-1,	19,	-1,	-1,	34,	-1,	-1,	-1,	36,	23,	12,	-1,	10,	26,	22,	6,	-1,	-1,	-1,	31,	20,	9,	4|
-1,	11,	20,	-1,	-1,	-1,	6,	13,	-1,	28,	19,	10,	-1,	4,	31,	-1,	26,	-1,	-1,	33,	-1,	-1,	16,	-1,	-1,	1,	-1,	25,	17,	29,	32,	12,	-1,	-1,	21,	5|
-1,	35,	-1,	32,	-1,	-1,	16,	3,	-1,	12,	-1,	-1,	-1,	-1,	25,	-1,	28,	-1,	1,	-1,	-1,	-1,	10,	27,	-1,	11,	31,	-1,	-1,	4,	7,	-1,	36,	26,	18,	-1|
-1,	36,	-1,	-1,	-1,	27,	17,	26,	-1,	8,	22,	-1,	32,	30,	-1,	2,	7,	-1,	31,	-1,	35,	21,	18,	20,	9,	-1,	-1,	-1,	-1,	5,	11,	-1,	-1,	-1,	-1,	-1|
17,	-1,	-1,	2,	-1,	31,	-1,	-1,	32,	-1,	7,	33,	34,	-1,	-1,	23,	12,	-1,	-1,	6,	25,	-1,	9,	-1,	-1,	13,	14,	-1,	10,	-1,	29,	21,	1,	-1,	16,	-1|
-1,	12,	35,	-1,	18,	36,	21,	-1,	-1,	-1,	10,	-1,	-1,	-1,	2,	4,	14,	1,	-1,	29,	-1,	24,	19,	34,	-1,	5,	-1,	23,	30,	27,	31,	3,	17,	9,	-1,	-1|
33,	23,	30,	8,	27,	-1,	34,	-1,	14,	5,	35,	28,	22,	13,	-1,	11,	-1,	29,	3,	17,	-1,	-1,	-1,	-1,	31,	25,	4,	-1,	-1,	1,	-1,	-1,	12,	-1,	15,	26|
20,	15,	19,	16,	32,	34,	3,	29,	2,	-1,	17,	-1,	28,	-1,	18,	-1,	6,	33,	-1,	-1,	-1,	-1,	31,	10,	26,	21,	-1,	36,	7,	12,	22,	11,	-1,	5,	-1,	-1|
-1,	-1,	13,	10,	-1,	-1,	-1,	31,	11,	6,	26,	-1,	-1,	-1,	-1,	-1,	-1,	32,	-1,	23,	36,	12,	2,	8,	16,	-1,	-1,	9,	-1,	17,	18,	27,	28,	19,	20,	33|
1,	-1,	14,	9,	-1,	25,	-1,	-1,	-1,	-1,	36,	19,	17,	-1,	-1,	27,	10,	31,	-1,	-1,	21,	5,	13,	11,	33,	18,	-1,	8,	-1,	-1,	4,	35,	-1,	7,	23,	-1|
-1,	17,	5,	-1,	28,	-1,	33,	4,	-1,	18,	15,	31,	36,	-1,	14,	32,	-1,	11,	-1,	24,	-1,	-1,	-1,	-1,	35,	29,	-1,	-1,	-1,	-1,	19,	-1,	-1,	22,	-1,	27|
2,	-1,	7,	-1,	35,	18,	-1,	19,	1,	-1,	13,	6,	-1,	20,	-1,	-1,	-1,	-1,	29,	11,	22,	-1,	-1,	9,	14,	-1,	23,	-1,	-1,	-1,	-1,	5,	32,	28,	-1,	-1|
4,	8,	32,	-1,	-1,	-1,	24,	20,	28,	30,	9,	35,	-1,	19,	-1,	-1,	29,	3,	-1,	-1,	-1,	16,	14,	-1,	-1,	17,	-1,	5,	18,	10,	15,	1,	-1,	36,	31,	21|
12,	10,	15,	20,	16,	-1,	2,	14,	3,	25,	8,	-1,	5,	-1,	4,	33,	17,	22,	-1,	-1,	-1,	28,	21,	-1,	-1,	-1,	36,	-1,	9,	19,	34,	6,	-1,	29,	7,	30|
-1,	1,	-1,	-1,	-1,	-1,	7,	17,	16,	-1,	5,	22,	23,	18,	28,	25,	9,	30,	-1,	15,	20,	10,	-1,	-1,	3,	2,	6,	-1,	-1,	21,	-1,	-1,	-1,	35,	24,	13|
11,	9,	-1,	25,	-1,	-1,	-1,	32,	29,	-1,	34,	12,	31,	7,	27,	-1,	21,	13,	6,	35,	-1,	-1,	3,	5,	4,	-1,	8,	33,	-1,	-1,	20,	14,	-1,	-1,	2,	23|
-1,	-1,	-1,	13,	-1,	1,	5,	-1,	-1,	4,	20,	-1,	21,	6,	26,	-1,	-1,	-1,	19,	12,	-1,	-1,	25,	-1,	29,	22,	10,	-1,	31,	-1,	36,	23,	-1,	32,	-1,	35|
-1,	29,	-1,	3,	20,	12,	36,	-1,	9,	14,	-1,	17,	10,	-1,	-1,	28,	-1,	8,	-1,	-1,	24,	33,	-1,	-1,	5,	6,	18,	30,	11,	-1,	-1,	19,	-1,	13,	4,	-1|
-1,	26,	-1,	-1,	-1,	-1,	19,	-1,	-1,	-1,	28,	34,	29,	25,	36,	16,	20,	27,	-1,	-1,	9,	4,	22,	-1,	12,	23,	-1,	14,	-1,	7,	-1,	-1,	-1,	-1,	6,	-1|
7,	5,	28,	-1,	14,	-1,	-1,	6,	30,	-1,	16,	1,	-1,	12,	9,	-1,	11,	-1,	18,	-1,	-1,	-1,	-1,	-1,	-1,	32,	-1,	-1,	4,	-1,	-1,	24,	-1,	-1,	26,	-1|
-1,	-1,	6,	22,	-1,	4,	-1,	-1,	10,	35,	-1,	21,	18,	-1,	-1,	-1,	-1,	-1,	17,	8,	28,	-1,	-1,	-1,	19,	36,	20,	-1,	-1,	33,	9,	15,	25,	14,	-1,	-1|
-1,	-1,	25,	-1,	19,	10,	-1,	-1,	-1,	-1,	-1,	-1,	-1,	22,	-1,	31,	33,	-1,	-1,	16,	-1,	6,	-1,	14,	-1,	3,	17,	27,	-1,	-1,	-1,	-1,	20,	12,	28,	-1|
34,	-1,	-1,	-1,	6,	28,	-1,	16,	12,	19,	-1,	-1,	13,	10,	29,	30,	36,	-1,	35,	-1,	-1,	15,	-1,	-1,	23,	-1,	25,	-1,	5,	31,	24,	-1,	-1,	-1,	22,	17|
25,	-1,	3,	15,	-1,	9,	32,	34,	-1,	31,	23,	-1,	8,	-1,	21,	-1,	5,	2,	13,	-1,	17,	7,	-1,	-1,	10,	-1,	12,	-1,	-1,	-1,	30,	-1,	4,	27,	-1,	-1|
5,	16,	-1,	-1,	24,	-1,	-1,	35,	-1,	-1,	33,	18,	-1,	-1,	34,	1,	-1,	25,	11,	-1,	6,	29,	-1,	-1,	30,	-1,	-1,	-1,	19,	32,	12,	20,	15,	31,	14,	-1|
-1,	20,	-1,	-1,	-1,	-1,	25,	11,	5,	27,	14,	36,	33,	15,	-1,	17,	-1,	-1,	-1,	-1,	-1,	30,	-1,	31,	-1,	-1,	-1,	18,	21,	-1,	26,	-1,	-1,	-1,	-1,	-1|
10,	-1,	31,	29,	1,	30,	28,	22,	-1,	17,	24,	9,	11,	16,	-1,	-1,	-1,	19,	-1,	-1,	-1,	14,	5,	-1,	34,	20,	-1,	-1,	15,	26,	-1,	-1,	-1,	8,	35,	-1|
-1,	-1,	17,	33,	13,	-1,	8,	-1,	7,	15,	-1,	26,	12,	27,	22,	-1,	31,	35,	4,	25,	-1,	3,	-1,	21,	-1,	24,	-1,	1,	-1,	14,	5,	-1,	34,	-1,	11,	6|
32,	30,	-1,	-1,	10,	17,	27,	-1,	18,	-1,	-1,	8,	19,	-1,	5,	-1,	-1,	28,	-1,	-1,	14,	31,	-1,	-1,	22,	-1,	35,	-1,	-1,	16,	-1,	2,	21,	-1,	12,	-1|
28,	-1,	18,	24,	34,	22,	14,	-1,	31,	-1,	3,	11,	2,	8,	23,	7,	-1,	12,	-1,	-1,	-1,	-1,	15,	19,	-1,	30,	1,	-1,	32,	25,	35,	26,	-1,	-1,	-1,	20|
3,	27,	29,	12,	2,	14,	-1,	-1,	-1,	-1,	-1,	20,	-1,	33,	-1,	21,	-1,	-1,	36,	-1,	1,	35,	24,	-1,	8,	-1,	-1,	-1,	26,	11,	-1,	-1,	-1,	18,	5,	9|
-1,	-1,	-1,	19,	7,	-1,	-1,	28,	36,	10,	2,	-1,	-1,	-1,	17,	29,	-1,	26,	-1,	-1,	13,	-1,	6,	-1,	20,	12,	5,	31,	33,	-1,	-1,	-1,	3,	-1,	-1,	14|
15,	31,	8,	26,	21,	-1,	-1,	-1,	17,	-1,	-1,	24,	-1,	-1,	-1,	-1,	-1,	-1,	16,	2,	12,	32,	11,	-1,	18,	4,	-1,	-1,	3,	6,	-1,	-1,	30,	25,	27,	19|
23,	13,	16,	5,	9,	-1,	-1,	-1,	22,	26,	12,	-1,	35,	31,	-1,	10,	-1,	-1,	30,	-1,	7,	-1,	33,	-1,	-1,	-1,	19,	2,	-1,	36,	6,	-1,	-1,	17,	-1,	-1|];
